GeneratedTests/Random_11/Random_11_18.tsp
NAME: Random_11_18
TYPE: TSP
DIMENSION: 11
EDGE_WEIGHT_TYPE: EUC_2D
NODE_COORD_SECTION
1 2.9242654 12.641147
2 2.5624504 19.38057
3 7.824593 22.259525
4 0.10950619 1.5141724
5 6.7463427 16.872093
6 4.819091 31.666498
7 27.99797 31.130009
8 32.132744 24.663773
9 14.050174 3.201653
10 8.231932 0.9986635
11 9.094551 11.252293
EOF
