GeneratedTests/Random_11/Random_11_18.txt
NAME: Random_11_18
TYPE: TSP
DIMENSION: 11
EDGE_WEIGHT_TYPE: EUC_2D
NODE_COORD_SECTION
1 32.685436 17.66136
2 0.39227933 25.78457
3 6.1197324 7.4372606
4 0.8406581 20.377832
5 18.431688 29.307095
6 10.575639 23.980461
7 29.906597 21.759104
8 7.890852 18.28182
9 25.225155 8.777521
10 25.880276 6.212081
11 0.24726373 25.020288
EOF
